PARAMETER_FILE = even/LKH_uncomplete_graph/x10/de/par/random156.par
PROBLEM_FILE = even/LKH_uncomplete_graph/x10/de/mat/random156.tsp
Successes/Runs = 0/10
Cost.min = 963, Cost.avg = 963.00, Cost.max = 963
Gap.min = 0.0000%, Gap.avg = 0.0000%, Gap.max = 0.0000%
Trials.min = 1000, Trials.avg = 1000.0, Trials.max = 1000
Time.min = 0.20 sec., Time.avg = 0.22 sec., Time.max = 0.25 sec.
Time.total = 2.30 sec.
请按任意键继续. . . 
